Minimize
  - 29 y_0 - 19 y_1 - 17 y_2 - 20 y_3 - 17 y_4 - 32 y_5 - 29 y_6 - 14 y_7
   - 18 y_8 - 24 y_9 - 14 y_10 - 15 y_11 - 9 y_12 - 20 y_13 - 21 y_14
   - 40 y_15 - 17 y_16 - 29 y_17 - 18 y_18 - 16 y_19 - 7 y_20 - 16 y_22
   - 21 y_23 - 24 y_24 - 18 y_25 - 19 y_26 - 17 y_27 - 34 y_28 - 30 y_29
   - 29 y_30 - 8 y_31 - 23 y_32 - 18 y_33 - y_34 - 32 y_35 - 31 y_36
   - 30 y_37 - 26 y_38 - 16 y_39 - 15 y_40 - 21 y_41 - 21 y_42 - 35 y_43
   - 34 y_44 - 19 y_45 - 15 y_46 - 19 y_47 - 19 y_48 - 25 y_49 + 67 x_0_1
   + 90 x_0_2 + 24 x_0_3 + 89 x_0_4 + 97 x_0_5 + 96 x_0_6 + 86 x_0_7
   + 55 x_0_9 + 45 x_0_10 + 56 x_0_12 + 72 x_0_20 + 33 x_0_22 + 29 x_0_23
   + 24 x_0_25 + 79 x_0_26 + 27 x_0_27 + 21 x_0_28 + 55 x_0_30 + 91 x_0_37
   + 27 x_0_41 + 81 x_0_42 + 62 x_0_45 + 40 x_0_47 + 43 x_0_49 + 61 x_1_3
   + 69 x_1_8 + 25 x_1_11 + 21 x_1_12 + 35 x_1_13 + 74 x_1_14 + 103 x_1_15
   + 32 x_1_19 + 43 x_1_20 + 38 x_1_21 + 58 x_1_22 + 67 x_1_23 + 75 x_1_26
   + 54 x_1_27 + 92 x_1_30 + 27 x_1_31 + 21 x_1_33 + 46 x_1_35 + 98 x_1_37
   + 40 x_1_38 + 54 x_1_39 + 58 x_1_40 + 41 x_1_41 + 79 x_1_42 + 45 x_1_43
   + 98 x_1_44 + 75 x_1_45 + 68 x_1_47 + 73 x_2_3 + 32 x_2_4 + 70 x_2_6
   + 25 x_2_7 + 59 x_2_9 + 49 x_2_10 + 35 x_2_12 + 11 x_2_13 + 90 x_2_17
   + 29 x_2_18 + 23 x_2_20 + 76 x_2_23 + 53 x_2_26 + 66 x_2_27 + 101 x_2_28
   + 91 x_2_29 + 89 x_2_30 + 21 x_2_31 + 13 x_2_32 + 83 x_2_35 + 95 x_2_36
   + 19 x_2_39 + 64 x_2_40 + 68 x_2_41 + 57 x_2_42 + 71 x_2_47 + 9 x_2_48
   + 67 x_3_4 + 72 x_3_6 + 56 x_3_9 + 38 x_3_10 + 44 x_3_12 + 78 x_3_13
   + 43 x_3_15 + 66 x_3_18 + 40 x_3_21 + 8 x_3_23 + 11 x_3_25 + 55 x_3_26
   + 37 x_3_30 + 53 x_3_31 + 85 x_3_32 + 41 x_3_34 + 54 x_3_35 + 12 x_3_40
   + 38 x_3_45 + 16 x_3_47 + 24 x_3_49 + 47 x_4_5 + 8 x_4_8 + 79 x_4_9
   + 61 x_4_10 + 43 x_4_11 + 48 x_4_12 + 43 x_4_13 + 56 x_4_16 + 73 x_4_17
   + 56 x_4_18 + 24 x_4_26 + 38 x_4_31 + 97 x_4_35 + 83 x_4_36 + 86 x_4_38
   + 14 x_4_39 + 103 x_4_43 + 60 x_4_46 + 28 x_4_48 + 54 x_5_7 + 112 x_5_9
   + 90 x_5_10 + 87 x_5_11 + 82 x_5_12 + 87 x_5_15 + 60 x_5_17 + 98 x_5_18
   + 64 x_5_21 + 66 x_5_22 + 67 x_5_23 + 95 x_5_24 + 90 x_5_28 + 50 x_5_30
   + 63 x_5_34 + 109 x_5_38 + 63 x_5_40 + 131 x_5_43 + 95 x_5_46
   + 57 x_5_47 + 57 x_5_49 + 81 x_6_13 + 29 x_6_14 + 90 x_6_15 + 59 x_6_16
   + 63 x_6_17 + 54 x_6_20 + 58 x_6_21 + 64 x_6_22 + 93 x_6_24 + 77 x_6_25
   + 21 x_6_26 + 72 x_6_27 + 87 x_6_33 + 56 x_6_34 + 118 x_6_35 + 10 x_6_37
   + 52 x_6_39 + 17 x_6_42 + 57 x_6_47 + 15 x_7_8 + 35 x_7_11 + 18 x_7_14
   + 54 x_7_16 + 48 x_7_18 + 55 x_7_22 + 64 x_7_23 + 62 x_7_25 + 29 x_7_26
   + 59 x_7_27 + 71 x_7_30 + 36 x_7_32 + 43 x_7_33 + 26 x_7_34 + 91 x_7_35
   + 83 x_7_36 + 96 x_7_43 + 44 x_7_45 + 57 x_7_47 + 68 x_7_49 + 6 x_8_14
   + 96 x_8_15 + 52 x_8_16 + 62 x_8_18 + 26 x_8_20 + 35 x_8_21 + 65 x_8_25
   + 17 x_8_26 + 90 x_8_28 + 88 x_8_29 + 63 x_8_30 + 50 x_8_32 + 58 x_8_33
   + 33 x_8_34 + 36 x_8_37 + 87 x_8_38 + 22 x_8_39 + 105 x_8_43 + 36 x_8_45
   + 53 x_8_47 + 37 x_8_48 + 62 x_8_49 + 45 x_9_11 + 55 x_9_13 + 88 x_9_14
   + 84 x_9_17 + 48 x_9_21 + 64 x_9_23 + 85 x_9_26 + 50 x_9_27 + 75 x_9_28
   + 42 x_9_31 + 66 x_9_32 + 42 x_9_33 + 50 x_9_34 + 26 x_9_35 + 80 x_9_36
   + 23 x_9_38 + 71 x_9_39 + 58 x_9_40 + 25 x_9_43 + 94 x_9_44 + 19 x_9_46
   + 68 x_9_47 + 37 x_10_11 + 15 x_10_12 + 70 x_10_14 + 80 x_10_15
   + 43 x_10_19 + 29 x_10_24 + 28 x_10_25 + 71 x_10_30 + 63 x_10_36
   + 85 x_10_37 + 25 x_10_38 + 56 x_10_39 + 60 x_10_49 + 24 x_11_12
   + 109 x_11_15 + 87 x_11_17 + 14 x_11_18 + 7 x_11_19 + 26 x_11_20
   + 60 x_11_22 + 71 x_11_23 + 59 x_11_25 + 60 x_11_26 + 59 x_11_27
   + 22 x_11_32 + 30 x_11_34 + 91 x_11_36 + 31 x_11_39 + 56 x_11_41
   + 98 x_11_44 + 66 x_11_45 + 36 x_12_13 + 44 x_12_16 + 18 x_12_21
   + 42 x_12_24 + 36 x_12_27 + 71 x_12_30 + 14 x_12_31 + 27 x_12_33
   + 50 x_12_35 + 69 x_12_36 + 77 x_12_37 + 41 x_12_39 + 54 x_12_43
   + 54 x_12_45 + 48 x_12_47 + 54 x_13_14 + 8 x_13_19 + 40 x_13_21
   + 82 x_13_23 + 71 x_13_25 + 105 x_13_28 + 98 x_13_30 + 24 x_13_31
   + 11 x_13_32 + 14 x_13_33 + 81 x_13_35 + 87 x_13_37 + 72 x_13_38
   + 70 x_13_40 + 80 x_13_43 + 39 x_13_46 + 91 x_13_49 + 101 x_14_15
   + 32 x_14_20 + 41 x_14_21 + 86 x_14_24 + 71 x_14_25 + 67 x_14_27
   + 95 x_14_29 + 48 x_14_31 + 84 x_14_36 + 37 x_14_37 + 24 x_14_39
   + 82 x_14_41 + 22 x_14_42 + 111 x_14_43 + 70 x_14_46 + 47 x_15_16
   + 28 x_15_17 + 108 x_15_18 + 112 x_15_19 + 49 x_15_22 + 57 x_15_24
   + 81 x_15_26 + 50 x_15_27 + 114 x_15_33 + 81 x_15_34 + 107 x_15_39
   + 50 x_15_40 + 66 x_15_41 + 81 x_15_42 + 24 x_15_44 + 44 x_15_47
   + 66 x_16_18 + 66 x_16_19 + 7 x_16_22 + 21 x_16_25 + 42 x_16_26
   + 15 x_16_27 + 29 x_16_30 + 80 x_16_32 + 35 x_16_34 + 29 x_16_36
   + 53 x_16_38 + 60 x_16_39 + 39 x_16_41 + 35 x_16_44 + 53 x_16_46
   + 89 x_17_19 + 35 x_17_27 + 31 x_17_28 + 44 x_17_29 + 55 x_17_37
   + 81 x_17_39 + 94 x_17_43 + 11 x_17_44 + 32 x_17_45 + 77 x_17_46
   + 19 x_17_47 + 6 x_17_49 + 36 x_18_20 + 61 x_18_22 + 71 x_18_23
   + 93 x_18_30 + 34 x_18_32 + 9 x_18_33 + 37 x_18_34 + 93 x_18_37
   + 51 x_18_38 + 61 x_18_40 + 100 x_18_44 + 73 x_18_45 + 18 x_18_46
   + 70 x_18_47 + 84 x_18_49 + 8 x_19_13 + 24 x_19_20 + 74 x_19_23
   + 63 x_19_25 + 63 x_19_27 + 98 x_19_28 + 17 x_19_31 + 14 x_19_33
   + 31 x_19_34 + 76 x_19_35 + 94 x_19_36 + 25 x_19_39 + 62 x_19_40
   + 61 x_19_42 + 66 x_19_45 + 34 x_19_46 + 13 x_20_21 + 44 x_20_22
   + 61 x_20_24 + 48 x_20_25 + 80 x_20_28 + 16 x_20_31 + 36 x_20_32
   + 34 x_20_33 + 76 x_20_35 + 57 x_20_37 + 64 x_20_38 + 55 x_20_41
   + 38 x_20_42 + 77 x_20_44 + 48 x_20_47 + 26 x_20_48 + 60 x_20_49
   + 47 x_21_24 + 35 x_21_25 + 37 x_21_26 + 33 x_21_27 + 60 x_21_29
   + 59 x_21_30 + 17 x_21_31 + 46 x_21_32 + 64 x_21_35 + 62 x_21_36
   + 59 x_21_37 + 52 x_21_38 + 42 x_21_41 + 70 x_21_43 + 68 x_21_44
   + 38 x_21_47 + 38 x_21_48 + 46 x_22_26 + 8 x_22_27 + 66 x_22_33
   + 33 x_22_34 + 58 x_22_35 + 30 x_22_36 + 60 x_22_37 + 3 x_22_40
   + 32 x_22_41 + 49 x_22_42 + 69 x_22_43 + 40 x_22_44 + 30 x_22_45
   + 48 x_22_46 + 32 x_23_24 + 19 x_23_25 + 27 x_23_28 + 30 x_23_29
   + 57 x_23_31 + 76 x_23_33 + 43 x_23_34 + 20 x_23_36 + 70 x_23_39
   + 12 x_23_40 + 74 x_23_43 + 31 x_23_44 + 33 x_23_45 + 57 x_23_46
   + 16 x_23_49 + 17 x_24_25 + 22 x_24_27 + 18 x_24_29 + 60 x_24_30
   + 67 x_24_33 + 20 x_24_38 + 77 x_24_42 + 43 x_24_43 + 60 x_24_45
   + 40 x_24_47 + 83 x_24_48 + 48 x_24_49 + 58 x_25_26 + 35 x_25_28
   + 25 x_25_29 + 47 x_25_30 + 63 x_25_33 + 37 x_25_34 + 45 x_25_35
   + 73 x_25_37 + 33 x_25_38 + 66 x_25_39 + 16 x_25_40 + 19 x_25_41
   + 56 x_25_43 + 41 x_25_46 + 25 x_25_47 + 73 x_25_48 + 35 x_25_49
   + 53 x_26_27 + 50 x_26_31 + 35 x_26_34 + 98 x_26_35 + 23 x_26_37
   + 85 x_26_38 + 43 x_26_40 + 106 x_26_43 + 61 x_26_44 + 21 x_26_45
   + 35 x_27_28 + 27 x_27_29 + 42 x_27_30 + 46 x_27_31 + 79 x_27_32
   + 33 x_27_36 + 38 x_27_38 + 64 x_27_39 + 11 x_27_40 + 56 x_27_42
   + 45 x_27_44 + 39 x_27_45 + 43 x_27_46 + 30 x_27_49 + 20 x_28_29
   + 97 x_28_33 + 69 x_28_34 + 62 x_28_35 + 17 x_28_36 + 85 x_28_37
   + 97 x_28_39 + 39 x_28_40 + 80 x_28_42 + 34 x_28_44 + 58 x_28_45
   + 106 x_28_48 + 33 x_28_49 + 54 x_29_30 + 32 x_29_36 + 35 x_29_38
   + 91 x_29_39 + 28 x_29_41 + 56 x_29_43 + 50 x_29_44 + 59 x_29_46
   + 40 x_29_47 + 97 x_29_48 + 43 x_29_49 + 76 x_30_31 + 102 x_30_32
   + 96 x_30_33 + 59 x_30_34 + 91 x_30_35 + 79 x_30_39 + 34 x_30_40
   + 66 x_30_41 + 47 x_30_42 + 103 x_30_43 + 13 x_30_44 + 91 x_30_48
   + 13 x_30_49 + 53 x_31_38 + 29 x_31_39 + 47 x_31_41 + 54 x_31_42
   + 67 x_31_43 + 84 x_31_44 + 23 x_31_46 + 54 x_31_47 + 45 x_32_34
   + 91 x_32_35 + 108 x_32_36 + 83 x_32_38 + 28 x_32_39 + 77 x_32_40
   + 68 x_32_42 + 91 x_32_43 + 113 x_32_44 + 77 x_32_45 + 49 x_32_46
   + 84 x_32_47 + 96 x_32_49 + 67 x_33_35 + 96 x_33_36 + 65 x_33_40
   + 58 x_33_41 + 66 x_33_43 + 27 x_33_46 + 74 x_33_47 + 30 x_33_48
   + 87 x_33_49 + 66 x_34_35 + 58 x_34_37 + 54 x_34_38 + 29 x_34_39
   + 31 x_34_40 + 73 x_34_43 + 13 x_35_38 + 92 x_35_39 + 26 x_35_41
   + 90 x_35_44 + 42 x_35_46 + 69 x_36_37 + 32 x_36_40 + 51 x_36_41
   + 66 x_36_42 + 86 x_36_43 + 26 x_36_47 + 99 x_36_48 + 90 x_37_41
   + 19 x_37_42 + 125 x_37_43 + 58 x_37_44 + 90 x_37_46 + 51 x_37_47
   + 52 x_37_49 + 81 x_38_39 + 48 x_38_40 + 88 x_38_42 + 24 x_38_43
   + 79 x_38_44 + 75 x_38_45 + 67 x_38_49 + 95 x_39_43 + 46 x_40_42
   + 39 x_40_44 + 32 x_41_46 + 75 x_41_48 + 53 x_41_49 + 109 x_42_43
   + 60 x_42_44 + 21 x_42_45 + 72 x_42_46 + 43 x_42_47 + 48 x_42_49
   + 97 x_43_45 + 44 x_43_46 + 81 x_43_47 + 90 x_43_49 + 40 x_44_45
   + 102 x_44_48 + 23 x_45_47 + 27 x_45_49 + 71 x_46_49 + 74 x_47_48
   + 86 x_48_49 + 1041 Constant
Subject To
 c_0: y_38 = 1
 c_1_0: y_0 + y_29 >= 1
 c_1_1: y_1 + y_46 >= 1
 c_1_2: y_2 + y_19 + y_48 >= 1
 c_1_3: y_3 + y_22 + y_23 + y_27 >= 1
 c_1_4: y_4 + y_7 + y_8 + y_14 >= 1
 c_1_5: y_5 + y_6 + y_37 >= 1
 c_1_6: y_5 + y_6 + y_37 >= 1
 c_1_7: y_4 + y_7 + y_39 >= 1
 c_1_8: y_4 + y_8 + y_14 >= 1
 c_1_9: y_9 >= 1
 c_1_10: y_10 >= 1
 c_1_11: y_11 + y_19 + y_33 >= 1
 c_1_12: y_12 >= 1
 c_1_13: y_13 + y_19 >= 1
 c_1_14: y_4 + y_8 + y_14 >= 1
 c_1_15: y_15 >= 1
 c_1_16: y_16 + y_22 + y_23 + y_40 + y_47 >= 1
 c_1_17: y_17 + y_49 >= 1
 c_1_18: y_18 + y_33 >= 1
 c_1_19: y_2 + y_11 + y_13 + y_19 >= 1
 c_1_20: y_20 >= 1
 c_1_21: y_21 + y_34 >= 1
 c_1_22: y_3 + y_16 + y_22 + y_23 + y_27 + y_40 >= 1
 c_1_23: y_3 + y_16 + y_22 + y_23 + y_47 >= 1
 c_1_24: y_24 + y_41 >= 1
 c_1_25: y_25 + y_27 >= 1
 c_1_26: y_26 + y_42 >= 1
 c_1_27: y_3 + y_22 + y_25 + y_27 >= 1
 c_1_28: y_28 >= 1
 c_1_29: y_0 + y_29 >= 1
 c_1_30: y_30 >= 1
 c_1_31: y_31 >= 1
 c_1_32: y_32 >= 1
 c_1_33: y_11 + y_18 + y_33 >= 1
 c_1_34: y_21 + y_34 >= 1
 c_1_35: y_35 >= 1
 c_1_36: y_36 >= 1
 c_1_37: y_5 + y_6 + y_37 >= 1
 c_1_38: y_38 >= 1
 c_1_39: y_7 + y_39 >= 1
 c_1_40: y_16 + y_22 + y_40 + y_47 >= 1
 c_1_41: y_24 + y_41 >= 1
 c_1_42: y_26 + y_42 >= 1
 c_1_43: y_43 >= 1
 c_1_44: y_44 >= 1
 c_1_45: y_45 >= 1
 c_1_46: y_1 + y_46 >= 1
 c_1_47: y_16 + y_23 + y_40 + y_47 >= 1
 c_1_48: y_2 + y_48 >= 1
 c_1_49: y_17 + y_49 >= 1
 c_2_0: - 2 y_0 + x_0_1 + x_0_2 + x_0_3 + x_0_4 + x_0_5 + x_0_6 + x_0_7
   + x_0_9 + x_0_10 + x_0_12 + x_0_20 + x_0_22 + x_0_23 + x_0_25 + x_0_26
   + x_0_27 + x_0_28 + x_0_30 + x_0_37 + x_0_41 + x_0_42 + x_0_45 + x_0_47
   + x_0_49 = 0
 c_2_1: - 2 y_1 + x_0_1 + x_1_3 + x_1_8 + x_1_11 + x_1_12 + x_1_13 + x_1_14
   + x_1_15 + x_1_19 + x_1_20 + x_1_21 + x_1_22 + x_1_23 + x_1_26 + x_1_27
   + x_1_30 + x_1_31 + x_1_33 + x_1_35 + x_1_37 + x_1_38 + x_1_39 + x_1_40
   + x_1_41 + x_1_42 + x_1_43 + x_1_44 + x_1_45 + x_1_47 = 0
 c_2_2: - 2 y_2 + x_0_2 + x_2_3 + x_2_4 + x_2_6 + x_2_7 + x_2_9 + x_2_10
   + x_2_12 + x_2_13 + x_2_17 + x_2_18 + x_2_20 + x_2_23 + x_2_26 + x_2_27
   + x_2_28 + x_2_29 + x_2_30 + x_2_31 + x_2_32 + x_2_35 + x_2_36 + x_2_39
   + x_2_40 + x_2_41 + x_2_42 + x_2_47 + x_2_48 = 0
 c_2_3: - 2 y_3 + x_0_3 + x_1_3 + x_2_3 + x_3_4 + x_3_6 + x_3_9 + x_3_10
   + x_3_12 + x_3_13 + x_3_15 + x_3_18 + x_3_21 + x_3_23 + x_3_25 + x_3_26
   + x_3_30 + x_3_31 + x_3_32 + x_3_34 + x_3_35 + x_3_40 + x_3_45 + x_3_47
   + x_3_49 = 0
 c_2_4: - 2 y_4 + x_0_4 + x_2_4 + x_3_4 + x_4_5 + x_4_8 + x_4_9 + x_4_10
   + x_4_11 + x_4_12 + x_4_13 + x_4_16 + x_4_17 + x_4_18 + x_4_26 + x_4_31
   + x_4_35 + x_4_36 + x_4_38 + x_4_39 + x_4_43 + x_4_46 + x_4_48 = 0
 c_2_5: - 2 y_5 + x_0_5 + x_4_5 + x_5_7 + x_5_9 + x_5_10 + x_5_11 + x_5_12
   + x_5_15 + x_5_17 + x_5_18 + x_5_21 + x_5_22 + x_5_23 + x_5_24 + x_5_28
   + x_5_30 + x_5_34 + x_5_38 + x_5_40 + x_5_43 + x_5_46 + x_5_47 + x_5_49
   = 0
 c_2_6: - 2 y_6 + x_0_6 + x_2_6 + x_3_6 + x_6_13 + x_6_14 + x_6_15 + x_6_16
   + x_6_17 + x_6_20 + x_6_21 + x_6_22 + x_6_24 + x_6_25 + x_6_26 + x_6_27
   + x_6_33 + x_6_34 + x_6_35 + x_6_37 + x_6_39 + x_6_42 + x_6_47 = 0
 c_2_7: - 2 y_7 + x_0_7 + x_2_7 + x_5_7 + x_7_8 + x_7_11 + x_7_14 + x_7_16
   + x_7_18 + x_7_22 + x_7_23 + x_7_25 + x_7_26 + x_7_27 + x_7_30 + x_7_32
   + x_7_33 + x_7_34 + x_7_35 + x_7_36 + x_7_43 + x_7_45 + x_7_47 + x_7_49
   = 0
 c_2_8: - 2 y_8 + x_1_8 + x_4_8 + x_7_8 + x_8_14 + x_8_15 + x_8_16 + x_8_18
   + x_8_20 + x_8_21 + x_8_25 + x_8_26 + x_8_28 + x_8_29 + x_8_30 + x_8_32
   + x_8_33 + x_8_34 + x_8_37 + x_8_38 + x_8_39 + x_8_43 + x_8_45 + x_8_47
   + x_8_48 + x_8_49 = 0
 c_2_9: - 2 y_9 + x_0_9 + x_2_9 + x_3_9 + x_4_9 + x_5_9 + x_9_11 + x_9_13
   + x_9_14 + x_9_17 + x_9_21 + x_9_23 + x_9_26 + x_9_27 + x_9_28 + x_9_31
   + x_9_32 + x_9_33 + x_9_34 + x_9_35 + x_9_36 + x_9_38 + x_9_39 + x_9_40
   + x_9_43 + x_9_44 + x_9_46 + x_9_47 = 0
 c_2_10: - 2 y_10 + x_0_10 + x_2_10 + x_3_10 + x_4_10 + x_5_10 + x_10_11
   + x_10_12 + x_10_14 + x_10_15 + x_10_19 + x_10_24 + x_10_25 + x_10_30
   + x_10_36 + x_10_37 + x_10_38 + x_10_39 + x_10_49 = 0
 c_2_11: - 2 y_11 + x_1_11 + x_4_11 + x_5_11 + x_7_11 + x_9_11 + x_10_11
   + x_11_12 + x_11_15 + x_11_17 + x_11_18 + x_11_19 + x_11_20 + x_11_22
   + x_11_23 + x_11_25 + x_11_26 + x_11_27 + x_11_32 + x_11_34 + x_11_36
   + x_11_39 + x_11_41 + x_11_44 + x_11_45 = 0
 c_2_12: - 2 y_12 + x_0_12 + x_1_12 + x_2_12 + x_3_12 + x_4_12 + x_5_12
   + x_10_12 + x_11_12 + x_12_13 + x_12_16 + x_12_21 + x_12_24 + x_12_27
   + x_12_30 + x_12_31 + x_12_33 + x_12_35 + x_12_36 + x_12_37 + x_12_39
   + x_12_43 + x_12_45 + x_12_47 = 0
 c_2_13: - 2 y_13 + x_1_13 + x_2_13 + x_3_13 + x_4_13 + x_6_13 + x_9_13
   + x_12_13 + x_13_14 + x_13_21 + x_13_23 + x_13_25 + x_13_28 + x_13_30
   + x_13_31 + x_13_32 + x_13_33 + x_13_35 + x_13_37 + x_13_38 + x_13_40
   + x_13_43 + x_13_46 + x_13_49 + 2 x_19_13 = 0
 c_2_14: - 2 y_14 + x_1_14 + x_6_14 + x_7_14 + x_8_14 + x_9_14 + x_10_14
   + x_13_14 + x_14_15 + x_14_20 + x_14_21 + x_14_24 + x_14_25 + x_14_27
   + x_14_29 + x_14_31 + x_14_36 + x_14_37 + x_14_39 + x_14_41 + x_14_42
   + x_14_43 + x_14_46 = 0
 c_2_15: - 2 y_15 + x_1_15 + x_3_15 + x_5_15 + x_6_15 + x_8_15 + x_10_15
   + x_11_15 + x_14_15 + x_15_16 + x_15_17 + x_15_18 + x_15_19 + x_15_22
   + x_15_24 + x_15_26 + x_15_27 + x_15_33 + x_15_34 + x_15_39 + x_15_40
   + x_15_41 + x_15_42 + x_15_44 + x_15_47 = 0
 c_2_16: - 2 y_16 + x_4_16 + x_6_16 + x_7_16 + x_8_16 + x_12_16 + x_15_16
   + x_16_18 + x_16_19 + x_16_22 + x_16_25 + x_16_26 + x_16_27 + x_16_30
   + x_16_32 + x_16_34 + x_16_36 + x_16_38 + x_16_39 + x_16_41 + x_16_44
   + x_16_46 = 0
 c_2_17: - 2 y_17 + x_2_17 + x_4_17 + x_5_17 + x_6_17 + x_9_17 + x_11_17
   + x_15_17 + x_17_19 + x_17_27 + x_17_28 + x_17_29 + x_17_37 + x_17_39
   + x_17_43 + x_17_44 + x_17_45 + x_17_46 + x_17_47 + x_17_49 = 0
 c_2_18: - 2 y_18 + x_2_18 + x_3_18 + x_4_18 + x_5_18 + x_7_18 + x_8_18
   + x_11_18 + x_15_18 + x_16_18 + x_18_20 + x_18_22 + x_18_23 + x_18_30
   + x_18_32 + x_18_33 + x_18_34 + x_18_37 + x_18_38 + x_18_40 + x_18_44
   + x_18_45 + x_18_46 + x_18_47 + x_18_49 = 0
 c_2_19: - 2 y_19 + x_1_19 + x_10_19 + x_11_19 + x_15_19 + x_16_19
   + x_17_19 + 2 x_19_13 + x_19_20 + x_19_23 + x_19_25 + x_19_27 + x_19_28
   + x_19_31 + x_19_33 + x_19_34 + x_19_35 + x_19_36 + x_19_39 + x_19_40
   + x_19_42 + x_19_45 + x_19_46 = 0
 c_2_20: - 2 y_20 + x_0_20 + x_1_20 + x_2_20 + x_6_20 + x_8_20 + x_11_20
   + x_14_20 + x_18_20 + x_19_20 + x_20_21 + x_20_22 + x_20_24 + x_20_25
   + x_20_28 + x_20_31 + x_20_32 + x_20_33 + x_20_35 + x_20_37 + x_20_38
   + x_20_41 + x_20_42 + x_20_44 + x_20_47 + x_20_48 + x_20_49 = 0
 c_2_21: - 2 y_21 + x_1_21 + x_3_21 + x_5_21 + x_6_21 + x_8_21 + x_9_21
   + x_12_21 + x_13_21 + x_14_21 + x_20_21 + x_21_24 + x_21_25 + x_21_26
   + x_21_27 + x_21_29 + x_21_30 + x_21_31 + x_21_32 + x_21_35 + x_21_36
   + x_21_37 + x_21_38 + x_21_41 + x_21_43 + x_21_44 + x_21_47 + x_21_48
   = 0
 c_2_22: - 2 y_22 + x_0_22 + x_1_22 + x_5_22 + x_6_22 + x_7_22 + x_11_22
   + x_15_22 + x_16_22 + x_18_22 + x_20_22 + x_22_26 + x_22_27 + x_22_33
   + x_22_34 + x_22_35 + x_22_36 + x_22_37 + x_22_40 + x_22_41 + x_22_42
   + x_22_43 + x_22_44 + x_22_45 + x_22_46 = 0
 c_2_23: - 2 y_23 + x_0_23 + x_1_23 + x_2_23 + x_3_23 + x_5_23 + x_7_23
   + x_9_23 + x_11_23 + x_13_23 + x_18_23 + x_19_23 + x_23_24 + x_23_25
   + x_23_28 + x_23_29 + x_23_31 + x_23_33 + x_23_34 + x_23_36 + x_23_39
   + x_23_40 + x_23_43 + x_23_44 + x_23_45 + x_23_46 + x_23_49 = 0
 c_2_24: - 2 y_24 + x_5_24 + x_6_24 + x_10_24 + x_12_24 + x_14_24 + x_15_24
   + x_20_24 + x_21_24 + x_23_24 + x_24_25 + x_24_27 + x_24_29 + x_24_30
   + x_24_33 + x_24_38 + x_24_42 + x_24_43 + x_24_45 + x_24_47 + x_24_48
   + x_24_49 = 0
 c_2_25: - 2 y_25 + x_0_25 + x_3_25 + x_6_25 + x_7_25 + x_8_25 + x_10_25
   + x_11_25 + x_13_25 + x_14_25 + x_16_25 + x_19_25 + x_20_25 + x_21_25
   + x_23_25 + x_24_25 + x_25_26 + x_25_28 + x_25_29 + x_25_30 + x_25_33
   + x_25_34 + x_25_35 + x_25_37 + x_25_38 + x_25_39 + x_25_40 + x_25_41
   + x_25_43 + x_25_46 + x_25_47 + x_25_48 + x_25_49 = 0
 c_2_26: - 2 y_26 + x_0_26 + x_1_26 + x_2_26 + x_3_26 + x_4_26 + x_6_26
   + x_7_26 + x_8_26 + x_9_26 + x_11_26 + x_15_26 + x_16_26 + x_21_26
   + x_22_26 + x_25_26 + x_26_27 + x_26_31 + x_26_34 + x_26_35 + x_26_37
   + x_26_38 + x_26_40 + x_26_43 + x_26_44 + x_26_45 = 0
 c_2_27: - 2 y_27 + x_0_27 + x_1_27 + x_2_27 + x_6_27 + x_7_27 + x_9_27
   + x_11_27 + x_12_27 + x_14_27 + x_15_27 + x_16_27 + x_17_27 + x_19_27
   + x_21_27 + x_22_27 + x_24_27 + x_26_27 + x_27_28 + x_27_29 + x_27_30
   + x_27_31 + x_27_32 + x_27_36 + x_27_38 + x_27_39 + x_27_40 + x_27_42
   + x_27_44 + x_27_45 + x_27_46 + x_27_49 = 0
 c_2_28: - 2 y_28 + x_0_28 + x_2_28 + x_5_28 + x_8_28 + x_9_28 + x_13_28
   + x_17_28 + x_19_28 + x_20_28 + x_23_28 + x_25_28 + x_27_28 + x_28_29
   + x_28_33 + x_28_34 + x_28_35 + x_28_36 + x_28_37 + x_28_39 + x_28_40
   + x_28_42 + x_28_44 + x_28_45 + x_28_48 + x_28_49 = 0
 c_2_29: - 2 y_29 + x_2_29 + x_8_29 + x_14_29 + x_17_29 + x_21_29 + x_23_29
   + x_24_29 + x_25_29 + x_27_29 + x_28_29 + x_29_30 + x_29_36 + x_29_38
   + x_29_39 + x_29_41 + x_29_43 + x_29_44 + x_29_46 + x_29_47 + x_29_48
   + x_29_49 = 0
 c_2_30: - 2 y_30 + x_0_30 + x_1_30 + x_2_30 + x_3_30 + x_5_30 + x_7_30
   + x_8_30 + x_10_30 + x_12_30 + x_13_30 + x_16_30 + x_18_30 + x_21_30
   + x_24_30 + x_25_30 + x_27_30 + x_29_30 + x_30_31 + x_30_32 + x_30_33
   + x_30_34 + x_30_35 + x_30_39 + x_30_40 + x_30_41 + x_30_42 + x_30_43
   + x_30_44 + x_30_48 + x_30_49 = 0
 c_2_31: - 2 y_31 + x_1_31 + x_2_31 + x_3_31 + x_4_31 + x_9_31 + x_12_31
   + x_13_31 + x_14_31 + x_19_31 + x_20_31 + x_21_31 + x_23_31 + x_26_31
   + x_27_31 + x_30_31 + x_31_38 + x_31_39 + x_31_41 + x_31_42 + x_31_43
   + x_31_44 + x_31_46 + x_31_47 = 0
 c_2_32: - 2 y_32 + x_2_32 + x_3_32 + x_7_32 + x_8_32 + x_9_32 + x_11_32
   + x_13_32 + x_16_32 + x_18_32 + x_20_32 + x_21_32 + x_27_32 + x_30_32
   + x_32_34 + x_32_35 + x_32_36 + x_32_38 + x_32_39 + x_32_40 + x_32_42
   + x_32_43 + x_32_44 + x_32_45 + x_32_46 + x_32_47 + x_32_49 = 0
 c_2_33: - 2 y_33 + x_1_33 + x_6_33 + x_7_33 + x_8_33 + x_9_33 + x_12_33
   + x_13_33 + x_15_33 + x_18_33 + x_19_33 + x_20_33 + x_22_33 + x_23_33
   + x_24_33 + x_25_33 + x_28_33 + x_30_33 + x_33_35 + x_33_36 + x_33_40
   + x_33_41 + x_33_43 + x_33_46 + x_33_47 + x_33_48 + x_33_49 = 0
 c_2_34: - 2 y_34 + x_3_34 + x_5_34 + x_6_34 + x_7_34 + x_8_34 + x_9_34
   + x_11_34 + x_15_34 + x_16_34 + x_18_34 + x_19_34 + x_22_34 + x_23_34
   + x_25_34 + x_26_34 + x_28_34 + x_30_34 + x_32_34 + x_34_35 + x_34_37
   + x_34_38 + x_34_39 + x_34_40 + x_34_43 = 0
 c_2_35: - 2 y_35 + x_1_35 + x_2_35 + x_3_35 + x_4_35 + x_6_35 + x_7_35
   + x_9_35 + x_12_35 + x_13_35 + x_19_35 + x_20_35 + x_21_35 + x_22_35
   + x_25_35 + x_26_35 + x_28_35 + x_30_35 + x_32_35 + x_33_35 + x_34_35
   + x_35_38 + x_35_39 + x_35_41 + x_35_44 + x_35_46 = 0
 c_2_36: - 2 y_36 + x_2_36 + x_4_36 + x_7_36 + x_9_36 + x_10_36 + x_11_36
   + x_12_36 + x_14_36 + x_16_36 + x_19_36 + x_21_36 + x_22_36 + x_23_36
   + x_27_36 + x_28_36 + x_29_36 + x_32_36 + x_33_36 + x_36_37 + x_36_40
   + x_36_41 + x_36_42 + x_36_43 + x_36_47 + x_36_48 = 0
 c_2_37: - 2 y_37 + x_0_37 + x_1_37 + x_6_37 + x_8_37 + x_10_37 + x_12_37
   + x_13_37 + x_14_37 + x_17_37 + x_18_37 + x_20_37 + x_21_37 + x_22_37
   + x_25_37 + x_26_37 + x_28_37 + x_34_37 + x_36_37 + x_37_41 + x_37_42
   + x_37_43 + x_37_44 + x_37_46 + x_37_47 + x_37_49 = 0
 c_2_38: - 2 y_38 + x_1_38 + x_4_38 + x_5_38 + x_8_38 + x_9_38 + x_10_38
   + x_13_38 + x_16_38 + x_18_38 + x_20_38 + x_21_38 + x_24_38 + x_25_38
   + x_26_38 + x_27_38 + x_29_38 + x_31_38 + x_32_38 + x_34_38 + x_35_38
   + x_38_39 + x_38_40 + x_38_42 + x_38_43 + x_38_44 + x_38_45 + x_38_49
   = 0
 c_2_39: - 2 y_39 + x_1_39 + x_2_39 + x_4_39 + x_6_39 + x_8_39 + x_9_39
   + x_10_39 + x_11_39 + x_12_39 + x_14_39 + x_15_39 + x_16_39 + x_17_39
   + x_19_39 + x_23_39 + x_25_39 + x_27_39 + x_28_39 + x_29_39 + x_30_39
   + x_31_39 + x_32_39 + x_34_39 + x_35_39 + x_38_39 + x_39_43 = 0
 c_2_40: - 2 y_40 + x_1_40 + x_2_40 + x_3_40 + x_5_40 + x_9_40 + x_13_40
   + x_15_40 + x_18_40 + x_19_40 + x_22_40 + x_23_40 + x_25_40 + x_26_40
   + x_27_40 + x_28_40 + x_30_40 + x_32_40 + x_33_40 + x_34_40 + x_36_40
   + x_38_40 + x_40_42 + x_40_44 = 0
 c_2_41: - 2 y_41 + x_0_41 + x_1_41 + x_2_41 + x_11_41 + x_14_41 + x_15_41
   + x_16_41 + x_20_41 + x_21_41 + x_22_41 + x_25_41 + x_29_41 + x_30_41
   + x_31_41 + x_33_41 + x_35_41 + x_36_41 + x_37_41 + x_41_46 + x_41_48
   + x_41_49 = 0
 c_2_42: - 2 y_42 + x_0_42 + x_1_42 + x_2_42 + x_6_42 + x_14_42 + x_15_42
   + x_19_42 + x_20_42 + x_22_42 + x_24_42 + x_27_42 + x_28_42 + x_30_42
   + x_31_42 + x_32_42 + x_36_42 + x_37_42 + x_38_42 + x_40_42 + x_42_43
   + x_42_44 + x_42_45 + x_42_46 + x_42_47 + x_42_49 = 0
 c_2_43: - 2 y_43 + x_1_43 + x_4_43 + x_5_43 + x_7_43 + x_8_43 + x_9_43
   + x_12_43 + x_13_43 + x_14_43 + x_17_43 + x_21_43 + x_22_43 + x_23_43
   + x_24_43 + x_25_43 + x_26_43 + x_29_43 + x_30_43 + x_31_43 + x_32_43
   + x_33_43 + x_34_43 + x_36_43 + x_37_43 + x_38_43 + x_39_43 + x_42_43
   + x_43_45 + x_43_46 + x_43_47 + x_43_49 = 0
 c_2_44: - 2 y_44 + x_1_44 + x_9_44 + x_11_44 + x_15_44 + x_16_44 + x_17_44
   + x_18_44 + x_20_44 + x_21_44 + x_22_44 + x_23_44 + x_26_44 + x_27_44
   + x_28_44 + x_29_44 + x_30_44 + x_31_44 + x_32_44 + x_35_44 + x_37_44
   + x_38_44 + x_40_44 + x_42_44 + x_44_45 + x_44_48 = 0
 c_2_45: - 2 y_45 + x_0_45 + x_1_45 + x_3_45 + x_7_45 + x_8_45 + x_11_45
   + x_12_45 + x_17_45 + x_18_45 + x_19_45 + x_22_45 + x_23_45 + x_24_45
   + x_26_45 + x_27_45 + x_28_45 + x_32_45 + x_38_45 + x_42_45 + x_43_45
   + x_44_45 + x_45_47 + x_45_49 = 0
 c_2_46: - 2 y_46 + x_4_46 + x_5_46 + x_9_46 + x_13_46 + x_14_46 + x_16_46
   + x_17_46 + x_18_46 + x_19_46 + x_22_46 + x_23_46 + x_25_46 + x_27_46
   + x_29_46 + x_31_46 + x_32_46 + x_33_46 + x_35_46 + x_37_46 + x_41_46
   + x_42_46 + x_43_46 + x_46_49 = 0
 c_2_47: - 2 y_47 + x_0_47 + x_1_47 + x_2_47 + x_3_47 + x_5_47 + x_6_47
   + x_7_47 + x_8_47 + x_9_47 + x_12_47 + x_15_47 + x_17_47 + x_18_47
   + x_20_47 + x_21_47 + x_24_47 + x_25_47 + x_29_47 + x_31_47 + x_32_47
   + x_33_47 + x_36_47 + x_37_47 + x_42_47 + x_43_47 + x_45_47 + x_47_48
   = 0
 c_2_48: - 2 y_48 + x_2_48 + x_4_48 + x_8_48 + x_20_48 + x_21_48 + x_24_48
   + x_25_48 + x_28_48 + x_29_48 + x_30_48 + x_33_48 + x_36_48 + x_41_48
   + x_44_48 + x_47_48 + x_48_49 = 0
 c_2_49: - 2 y_49 + x_0_49 + x_3_49 + x_5_49 + x_7_49 + x_8_49 + x_10_49
   + x_13_49 + x_17_49 + x_18_49 + x_20_49 + x_23_49 + x_24_49 + x_25_49
   + x_27_49 + x_28_49 + x_29_49 + x_30_49 + x_32_49 + x_33_49 + x_37_49
   + x_38_49 + x_41_49 + x_42_49 + x_43_49 + x_45_49 + x_46_49 + x_48_49
   = 0
Bounds
 Constant = 1
Binaries
 y_0 y_1 y_2 y_3 y_4 y_5 y_6 y_7 y_8 y_9 y_10 y_11 y_12 y_13 y_14 y_15 y_16
 y_17 y_18 y_19 y_20 y_21 y_22 y_23 y_24 y_25 y_26 y_27 y_28 y_29 y_30 y_31
 y_32 y_33 y_34 y_35 y_36 y_37 y_38 y_39 y_40 y_41 y_42 y_43 y_44 y_45 y_46
 y_47 y_48 y_49 x_0_1 x_0_2 x_0_3 x_0_4 x_0_5 x_0_6 x_0_7 x_0_9 x_0_10
 x_0_12 x_0_20 x_0_22 x_0_23 x_0_25 x_0_26 x_0_27 x_0_28 x_0_30 x_0_37
 x_0_41 x_0_42 x_0_45 x_0_47 x_0_49 x_1_3 x_1_8 x_1_11 x_1_12 x_1_13 x_1_14
 x_1_15 x_1_19 x_1_20 x_1_21 x_1_22 x_1_23 x_1_26 x_1_27 x_1_30 x_1_31
 x_1_33 x_1_35 x_1_37 x_1_38 x_1_39 x_1_40 x_1_41 x_1_42 x_1_43 x_1_44
 x_1_45 x_1_47 x_2_3 x_2_4 x_2_6 x_2_7 x_2_9 x_2_10 x_2_12 x_2_13 x_2_17
 x_2_18 x_2_20 x_2_23 x_2_26 x_2_27 x_2_28 x_2_29 x_2_30 x_2_31 x_2_32
 x_2_35 x_2_36 x_2_39 x_2_40 x_2_41 x_2_42 x_2_47 x_2_48 x_3_4 x_3_6 x_3_9
 x_3_10 x_3_12 x_3_13 x_3_15 x_3_18 x_3_21 x_3_23 x_3_25 x_3_26 x_3_30
 x_3_31 x_3_32 x_3_34 x_3_35 x_3_40 x_3_45 x_3_47 x_3_49 x_4_5 x_4_8 x_4_9
 x_4_10 x_4_11 x_4_12 x_4_13 x_4_16 x_4_17 x_4_18 x_4_26 x_4_31 x_4_35
 x_4_36 x_4_38 x_4_39 x_4_43 x_4_46 x_4_48 x_5_7 x_5_9 x_5_10 x_5_11 x_5_12
 x_5_15 x_5_17 x_5_18 x_5_21 x_5_22 x_5_23 x_5_24 x_5_28 x_5_30 x_5_34
 x_5_38 x_5_40 x_5_43 x_5_46 x_5_47 x_5_49 x_6_13 x_6_14 x_6_15 x_6_16
 x_6_17 x_6_20 x_6_21 x_6_22 x_6_24 x_6_25 x_6_26 x_6_27 x_6_33 x_6_34
 x_6_35 x_6_37 x_6_39 x_6_42 x_6_47 x_7_8 x_7_11 x_7_14 x_7_16 x_7_18
 x_7_22 x_7_23 x_7_25 x_7_26 x_7_27 x_7_30 x_7_32 x_7_33 x_7_34 x_7_35
 x_7_36 x_7_43 x_7_45 x_7_47 x_7_49 x_8_14 x_8_15 x_8_16 x_8_18 x_8_20
 x_8_21 x_8_25 x_8_26 x_8_28 x_8_29 x_8_30 x_8_32 x_8_33 x_8_34 x_8_37
 x_8_38 x_8_39 x_8_43 x_8_45 x_8_47 x_8_48 x_8_49 x_9_11 x_9_13 x_9_14
 x_9_17 x_9_21 x_9_23 x_9_26 x_9_27 x_9_28 x_9_31 x_9_32 x_9_33 x_9_34
 x_9_35 x_9_36 x_9_38 x_9_39 x_9_40 x_9_43 x_9_44 x_9_46 x_9_47 x_10_11
 x_10_12 x_10_14 x_10_15 x_10_19 x_10_24 x_10_25 x_10_30 x_10_36 x_10_37
 x_10_38 x_10_39 x_10_49 x_11_12 x_11_15 x_11_17 x_11_18 x_11_19 x_11_20
 x_11_22 x_11_23 x_11_25 x_11_26 x_11_27 x_11_32 x_11_34 x_11_36 x_11_39
 x_11_41 x_11_44 x_11_45 x_12_13 x_12_16 x_12_21 x_12_24 x_12_27 x_12_30
 x_12_31 x_12_33 x_12_35 x_12_36 x_12_37 x_12_39 x_12_43 x_12_45 x_12_47
 x_13_14 x_13_19 x_13_21 x_13_23 x_13_25 x_13_28 x_13_30 x_13_31 x_13_32
 x_13_33 x_13_35 x_13_37 x_13_38 x_13_40 x_13_43 x_13_46 x_13_49 x_14_15
 x_14_20 x_14_21 x_14_24 x_14_25 x_14_27 x_14_29 x_14_31 x_14_36 x_14_37
 x_14_39 x_14_41 x_14_42 x_14_43 x_14_46 x_15_16 x_15_17 x_15_18 x_15_19
 x_15_22 x_15_24 x_15_26 x_15_27 x_15_33 x_15_34 x_15_39 x_15_40 x_15_41
 x_15_42 x_15_44 x_15_47 x_16_18 x_16_19 x_16_22 x_16_25 x_16_26 x_16_27
 x_16_30 x_16_32 x_16_34 x_16_36 x_16_38 x_16_39 x_16_41 x_16_44 x_16_46
 x_17_19 x_17_27 x_17_28 x_17_29 x_17_37 x_17_39 x_17_43 x_17_44 x_17_45
 x_17_46 x_17_47 x_17_49 x_18_20 x_18_22 x_18_23 x_18_30 x_18_32 x_18_33
 x_18_34 x_18_37 x_18_38 x_18_40 x_18_44 x_18_45 x_18_46 x_18_47 x_18_49
 x_19_13 x_19_20 x_19_23 x_19_25 x_19_27 x_19_28 x_19_31 x_19_33 x_19_34
 x_19_35 x_19_36 x_19_39 x_19_40 x_19_42 x_19_45 x_19_46 x_20_21 x_20_22
 x_20_24 x_20_25 x_20_28 x_20_31 x_20_32 x_20_33 x_20_35 x_20_37 x_20_38
 x_20_41 x_20_42 x_20_44 x_20_47 x_20_48 x_20_49 x_21_24 x_21_25 x_21_26
 x_21_27 x_21_29 x_21_30 x_21_31 x_21_32 x_21_35 x_21_36 x_21_37 x_21_38
 x_21_41 x_21_43 x_21_44 x_21_47 x_21_48 x_22_26 x_22_27 x_22_33 x_22_34
 x_22_35 x_22_36 x_22_37 x_22_40 x_22_41 x_22_42 x_22_43 x_22_44 x_22_45
 x_22_46 x_23_24 x_23_25 x_23_28 x_23_29 x_23_31 x_23_33 x_23_34 x_23_36
 x_23_39 x_23_40 x_23_43 x_23_44 x_23_45 x_23_46 x_23_49 x_24_25 x_24_27
 x_24_29 x_24_30 x_24_33 x_24_38 x_24_42 x_24_43 x_24_45 x_24_47 x_24_48
 x_24_49 x_25_26 x_25_28 x_25_29 x_25_30 x_25_33 x_25_34 x_25_35 x_25_37
 x_25_38 x_25_39 x_25_40 x_25_41 x_25_43 x_25_46 x_25_47 x_25_48 x_25_49
 x_26_27 x_26_31 x_26_34 x_26_35 x_26_37 x_26_38 x_26_40 x_26_43 x_26_44
 x_26_45 x_27_28 x_27_29 x_27_30 x_27_31 x_27_32 x_27_36 x_27_38 x_27_39
 x_27_40 x_27_42 x_27_44 x_27_45 x_27_46 x_27_49 x_28_29 x_28_33 x_28_34
 x_28_35 x_28_36 x_28_37 x_28_39 x_28_40 x_28_42 x_28_44 x_28_45 x_28_48
 x_28_49 x_29_30 x_29_36 x_29_38 x_29_39 x_29_41 x_29_43 x_29_44 x_29_46
 x_29_47 x_29_48 x_29_49 x_30_31 x_30_32 x_30_33 x_30_34 x_30_35 x_30_39
 x_30_40 x_30_41 x_30_42 x_30_43 x_30_44 x_30_48 x_30_49 x_31_38 x_31_39
 x_31_41 x_31_42 x_31_43 x_31_44 x_31_46 x_31_47 x_32_34 x_32_35 x_32_36
 x_32_38 x_32_39 x_32_40 x_32_42 x_32_43 x_32_44 x_32_45 x_32_46 x_32_47
 x_32_49 x_33_35 x_33_36 x_33_40 x_33_41 x_33_43 x_33_46 x_33_47 x_33_48
 x_33_49 x_34_35 x_34_37 x_34_38 x_34_39 x_34_40 x_34_43 x_35_38 x_35_39
 x_35_41 x_35_44 x_35_46 x_36_37 x_36_40 x_36_41 x_36_42 x_36_43 x_36_47
 x_36_48 x_37_41 x_37_42 x_37_43 x_37_44 x_37_46 x_37_47 x_37_49 x_38_39
 x_38_40 x_38_42 x_38_43 x_38_44 x_38_45 x_38_49 x_39_43 x_40_42 x_40_44
 x_41_46 x_41_48 x_41_49 x_42_43 x_42_44 x_42_45 x_42_46 x_42_47 x_42_49
 x_43_45 x_43_46 x_43_47 x_43_49 x_44_45 x_44_48 x_45_47 x_45_49 x_46_49
 x_47_48 x_48_49
End
